p cnf 687 1916
e 667 668 669 670 671 672 673 674 675 676 677 678 679 680 681 682 683 684 685 686 0
a 639 640 641 642 643 644 645 646 647 648 649 650 651 652 653 654 655 656 657 658 659 660 661 662 663 664 665 666 0
e 1 2 3 4 5 6 7 8 9 10 11 12 13 14 15 16 17 18 19 20 21 22 23 24 25 26 27 28 29 30 31 32 33 34 35 36 37 38 39 40 41 42 43 44 45 46 47 48 49 50 51 52 53 54 55 56 57 58 59 60 61 62 63 64 65 66 67 68 69 70 71 72 73 74 75 76 77 78 79 80 81 82 83 84 85 86 87 88 89 90 91 92 93 94 95 96 97 98 99 100 101 102 103 104 105 106 107 108 109 110 111 112 113 114 115 116 117 118 119 120 121 122 123 124 125 126 127 128 129 130 131 132 133 134 135 136 137 138 139 140 141 142 143 144 145 146 147 148 149 150 151 152 153 154 155 156 157 158 159 160 161 162 163 164 165 166 167 168 169 170 171 172 173 174 175 176 177 178 179 180 181 182 183 184 185 186 187 188 189 190 191 192 193 194 195 196 197 198 199 200 201 202 203 204 205 206 207 208 209 210 211 212 213 214 215 216 217 218 219 220 221 222 223 224 225 226 227 228 229 230 231 232 233 234 235 236 237 238 239 240 241 242 243 244 245 246 247 248 249 250 251 252 253 254 255 256 257 258 259 260 261 262 263 264 265 266 267 268 269 270 271 272 273 274 275 276 277 278 279 280 281 282 283 284 285 286 287 288 289 290 291 292 293 294 295 296 297 298 299 300 301 302 303 304 305 306 307 308 309 310 311 312 313 314 315 316 317 318 319 320 321 322 323 324 325 326 327 328 329 330 331 332 333 334 335 336 337 338 339 340 341 342 343 344 345 346 347 348 349 350 351 352 353 354 355 356 357 358 359 360 361 362 363 364 365 366 367 368 369 370 371 372 373 374 375 376 377 378 379 380 381 382 383 384 385 386 387 388 389 390 391 392 393 394 395 396 397 398 399 400 401 402 403 404 405 406 407 408 409 410 411 412 413 414 415 416 417 418 419 420 421 422 423 424 425 426 427 428 429 430 431 432 433 434 435 436 437 438 439 440 441 442 443 444 445 446 447 448 449 450 451 452 453 454 455 456 457 458 459 460 461 462 463 464 465 466 467 468 469 470 471 472 473 474 475 476 477 478 479 480 481 482 483 484 485 486 487 488 489 490 491 492 493 494 495 496 497 498 499 500 501 502 503 504 505 506 507 508 509 510 511 512 513 514 515 516 517 518 519 520 521 522 523 524 525 526 527 528 529 530 531 532 533 534 535 536 537 538 539 540 541 542 543 544 545 546 547 548 549 550 551 552 553 554 555 556 557 558 559 560 561 562 563 564 565 566 567 568 569 570 571 572 573 574 575 576 577 578 579 580 581 582 583 584 585 586 587 588 589 590 591 592 593 594 595 596 597 598 599 600 601 602 603 604 605 606 607 608 609 610 611 612 613 614 615 616 617 618 619 620 621 622 623 624 625 626 627 628 629 630 631 632 633 634 635 636 637 638 687 0
644 646 1 0
-644 -1 0
-646 -1 0
-644 660 2 0
644 -2 0
-660 -2 0
1 2 3 0
-1 -3 0
-2 -3 0
-683 646 4 0
-646 -4 0
683 -4 0
683 3 5 0
-683 -5 0
-3 -5 0
4 5 6 0
-4 -6 0
-5 -6 0
644 647 7 0
-644 -7 0
-647 -7 0
-644 661 8 0
644 -8 0
-661 -8 0
7 8 9 0
-7 -9 0
-8 -9 0
644 648 10 0
-644 -10 0
-648 -10 0
-644 662 11 0
644 -11 0
-662 -11 0
10 11 12 0
-10 -12 0
-11 -12 0
644 649 13 0
-644 -13 0
-649 -13 0
-644 663 14 0
644 -14 0
-663 -14 0
13 14 15 0
-13 -15 0
-14 -15 0
-684 649 16 0
-649 -16 0
684 -16 0
684 15 17 0
-684 -17 0
-15 -17 0
16 17 18 0
-16 -18 0
-17 -18 0
644 650 19 0
-644 -19 0
-650 -19 0
-644 664 20 0
644 -20 0
-664 -20 0
19 20 21 0
-19 -21 0
-20 -21 0
644 651 22 0
-644 -22 0
-651 -22 0
-644 665 23 0
644 -23 0
-665 -23 0
22 23 24 0
-22 -24 0
-23 -24 0
-685 644 25 0
-644 -25 0
685 -25 0
685 24 26 0
-685 -26 0
-24 -26 0
25 26 27 0
-25 -27 0
-26 -27 0
-644 666 28 0
644 -28 0
-666 -28 0
640 644 29 0
-640 -29 0
-644 -29 0
28 29 30 0
-28 -30 0
-29 -30 0
639 -644 31 0
-639 -31 0
644 -31 0
642 644 32 0
-642 -32 0
-644 -32 0
31 32 33 0
-31 -33 0
-32 -33 0
-645 -652 34 0
645 -34 0
652 -34 0
641 -34 35 0
-641 -35 0
34 -35 0
645 -660 36 0
-645 -36 0
660 -36 0
641 -36 37 0
-641 -37 0
36 -37 0
643 -646 38 0
-643 -38 0
646 -38 0
-643 646 39 0
643 -39 0
-646 -39 0
38 39 40 0
-38 -40 0
-39 -40 0
-641 -40 41 0
641 -41 0
40 -41 0
-686 643 42 0
-643 -42 0
686 -42 0
686 41 43 0
-686 -43 0
-41 -43 0
42 43 44 0
-42 -44 0
-43 -44 0
35 37 45 0
-35 -45 0
-37 -45 0
44 -45 46 0
-44 -46 0
45 -46 0
-674 641 47 0
-641 -47 0
674 -47 0
674 46 48 0
-674 -48 0
-46 -48 0
47 48 49 0
-47 -49 0
-48 -49 0
643 646 50 0
-643 -50 0
-646 -50 0
647 50 51 0
-647 -51 0
-50 -51 0
-647 -50 52 0
647 -52 0
50 -52 0
51 52 53 0
-51 -53 0
-52 -53 0
645 661 54 0
-645 -54 0
-661 -54 0
-645 653 55 0
645 -55 0
-653 -55 0
54 55 56 0
-54 -56 0
-55 -56 0
641 -56 57 0
-641 -57 0
56 -57 0
-682 641 58 0
-641 -58 0
682 -58 0
682 57 59 0
-682 -59 0
-57 -59 0
58 59 60 0
-58 -60 0
-59 -60 0
-641 -53 61 0
641 -61 0
53 -61 0
60 61 62 0
-60 -62 0
-61 -62 0
-673 646 63 0
-646 -63 0
673 -63 0
673 62 64 0
-673 -64 0
-62 -64 0
63 64 65 0
-63 -65 0
-64 -65 0
646 647 66 0
-646 -66 0
-647 -66 0
643 -66 67 0
-643 -67 0
66 -67 0
-648 67 68 0
648 -68 0
-67 -68 0
-641 68 69 0
641 -69 0
-68 -69 0
647 648 70 0
-647 -70 0
-648 -70 0
646 -70 71 0
-646 -71 0
70 -71 0
643 -71 72 0
-643 -72 0
71 -72 0
645 662 73 0
-645 -73 0
-662 -73 0
641 -73 74 0
-641 -74 0
73 -74 0
-645 654 75 0
645 -75 0
-654 -75 0
641 -75 76 0
-641 -76 0
75 -76 0
74 76 77 0
-74 -77 0
-76 -77 0
-681 654 78 0
-654 -78 0
681 -78 0
681 77 79 0
-681 -79 0
-77 -79 0
78 79 80 0
-78 -80 0
-79 -80 0
-69 72 81 0
69 -81 0
-72 -81 0
-80 81 82 0
80 -82 0
-81 -82 0
-670 641 83 0
-641 -83 0
670 -83 0
670 -82 84 0
-670 -84 0
82 -84 0
83 84 85 0
-83 -85 0
-84 -85 0
648 649 86 0
-648 -86 0
-649 -86 0
-67 -86 87 0
67 -87 0
86 -87 0
-641 87 88 0
641 -88 0
-87 -88 0
-649 72 89 0
649 -89 0
-72 -89 0
645 663 90 0
-645 -90 0
-663 -90 0
641 -90 91 0
-641 -91 0
90 -91 0
-645 655 92 0
645 -92 0
-655 -92 0
641 -92 93 0
-641 -93 0
92 -93 0
91 93 94 0
-91 -94 0
-93 -94 0
-678 641 95 0
-641 -95 0
678 -95 0
678 94 96 0
-678 -96 0
-94 -96 0
95 96 97 0
-95 -97 0
-96 -97 0
-88 89 98 0
88 -98 0
-89 -98 0
-97 98 99 0
97 -99 0
-98 -99 0
-672 646 100 0
-646 -100 0
672 -100 0
672 -99 101 0
-672 -101 0
99 -101 0
100 101 102 0
-100 -102 0
-101 -102 0
-50 -86 103 0
50 -103 0
86 -103 0
647 -103 104 0
-647 -104 0
103 -104 0
-650 104 105 0
650 -105 0
-104 -105 0
-641 105 106 0
641 -106 0
-105 -106 0
650 -103 107 0
-650 -107 0
103 -107 0
647 -107 108 0
-647 -108 0
107 -108 0
645 664 109 0
-645 -109 0
-664 -109 0
641 -109 110 0
-641 -110 0
109 -110 0
-645 656 111 0
645 -111 0
-656 -111 0
641 -111 112 0
-641 -112 0
111 -112 0
110 112 113 0
-110 -113 0
-112 -113 0
-677 641 114 0
-641 -114 0
677 -114 0
677 113 115 0
-677 -115 0
-113 -115 0
114 115 116 0
-114 -116 0
-115 -116 0
-106 108 117 0
106 -117 0
-108 -117 0
-116 117 118 0
116 -118 0
-117 -118 0
-669 646 119 0
-646 -119 0
669 -119 0
669 -118 120 0
-669 -120 0
118 -120 0
119 120 121 0
-119 -121 0
-120 -121 0
650 651 122 0
-650 -122 0
-651 -122 0
-86 -122 123 0
86 -123 0
122 -123 0
-50 -123 124 0
50 -124 0
123 -124 0
647 -124 125 0
-647 -125 0
124 -125 0
-641 125 126 0
641 -126 0
-125 -126 0
-651 108 127 0
651 -127 0
-108 -127 0
645 665 128 0
-645 -128 0
-665 -128 0
641 -128 129 0
-641 -129 0
128 -129 0
-645 657 130 0
645 -130 0
-657 -130 0
641 -130 131 0
-641 -131 0
130 -131 0
129 131 132 0
-129 -132 0
-131 -132 0
-676 665 133 0
-665 -133 0
676 -133 0
676 132 134 0
-676 -134 0
-132 -134 0
133 134 135 0
-133 -135 0
-134 -135 0
-126 127 136 0
126 -136 0
-127 -136 0
-135 136 137 0
135 -137 0
-136 -137 0
-671 641 138 0
-641 -138 0
671 -138 0
671 -137 139 0
-671 -139 0
137 -139 0
138 139 140 0
-138 -140 0
-139 -140 0
-640 125 141 0
640 -141 0
-125 -141 0
-641 141 142 0
641 -142 0
-141 -142 0
-67 -123 143 0
67 -143 0
123 -143 0
640 -143 144 0
-640 -144 0
143 -144 0
-645 658 145 0
645 -145 0
-658 -145 0
641 -145 146 0
-641 -146 0
145 -146 0
645 666 147 0
-645 -147 0
-666 -147 0
641 -147 148 0
-641 -148 0
147 -148 0
146 148 149 0
-146 -149 0
-148 -149 0
-679 658 150 0
-658 -150 0
679 -150 0
679 149 151 0
-679 -151 0
-149 -151 0
150 151 152 0
-150 -152 0
-151 -152 0
-142 144 153 0
142 -153 0
-144 -153 0
-152 153 154 0
152 -154 0
-153 -154 0
-668 640 155 0
-640 -155 0
668 -155 0
668 -154 156 0
-668 -156 0
154 -156 0
155 156 157 0
-155 -157 0
-156 -157 0
640 642 158 0
-640 -158 0
-642 -158 0
-122 -158 159 0
122 -159 0
158 -159 0
-86 -159 160 0
86 -160 0
159 -160 0
-67 -160 161 0
67 -161 0
160 -161 0
-641 161 162 0
641 -162 0
-161 -162 0
640 -125 163 0
-640 -163 0
125 -163 0
-642 163 164 0
642 -164 0
-163 -164 0
-645 659 165 0
645 -165 0
-659 -165 0
641 -165 166 0
-641 -166 0
165 -166 0
641 645 167 0
-641 -167 0
-645 -167 0
639 -167 168 0
-639 -168 0
167 -168 0
166 168 169 0
-166 -169 0
-168 -169 0
-680 639 170 0
-639 -170 0
680 -170 0
680 169 171 0
-680 -171 0
-169 -171 0
170 171 172 0
-170 -172 0
-171 -172 0
-162 164 173 0
162 -173 0
-164 -173 0
-172 173 174 0
172 -174 0
-173 -174 0
-667 646 175 0
-646 -175 0
667 -175 0
667 -174 176 0
-667 -176 0
174 -176 0
175 176 177 0
-175 -177 0
-176 -177 0
-646 647 178 0
646 -178 0
-647 -178 0
643 -178 179 0
-643 -179 0
178 -179 0
-641 -179 180 0
641 -180 0
179 -180 0
-643 -644 181 0
643 -181 0
644 -181 0
-641 -181 182 0
641 -182 0
181 -182 0
-160 -180 183 0
160 -183 0
180 -183 0
182 183 184 0
-182 -184 0
-183 -184 0
-675 646 185 0
-646 -185 0
675 -185 0
675 184 186 0
-675 -186 0
-184 -186 0
185 186 187 0
-185 -187 0
-186 -187 0
41 -45 188 0
-41 -188 0
45 -188 0
57 61 189 0
-57 -189 0
-61 -189 0
-77 81 190 0
77 -190 0
-81 -190 0
-94 98 191 0
94 -191 0
-98 -191 0
-113 117 192 0
113 -192 0
-117 -192 0
-132 136 193 0
132 -193 0
-136 -193 0
-149 153 194 0
149 -194 0
-153 -194 0
-169 173 195 0
169 -195 0
-173 -195 0
3 -6 196 0
-3 -196 0
6 -196 0
-3 6 197 0
3 -197 0
-6 -197 0
196 197 198 0
-196 -198 0
-197 -198 0
9 196 199 0
-9 -199 0
-196 -199 0
-9 -196 200 0
9 -200 0
196 -200 0
199 200 201 0
-199 -201 0
-200 -201 0
9 -201 202 0
-9 -202 0
201 -202 0
-9 201 203 0
9 -203 0
-201 -203 0
202 203 204 0
-202 -204 0
-203 -204 0
12 196 205 0
-12 -205 0
-196 -205 0
-12 -196 206 0
12 -206 0
196 -206 0
205 206 207 0
-205 -207 0
-206 -207 0
12 -207 208 0
-12 -208 0
207 -208 0
-12 207 209 0
12 -209 0
-207 -209 0
208 209 210 0
-208 -210 0
-209 -210 0
18 196 211 0
-18 -211 0
-196 -211 0
-18 -196 212 0
18 -212 0
196 -212 0
211 212 213 0
-211 -213 0
-212 -213 0
15 -213 214 0
-15 -214 0
213 -214 0
-15 213 215 0
15 -215 0
-213 -215 0
214 215 216 0
-214 -216 0
-215 -216 0
15 -18 217 0
-15 -217 0
18 -217 0
-15 18 218 0
15 -218 0
-18 -218 0
-196 218 219 0
196 -219 0
-218 -219 0
196 -217 220 0
-196 -220 0
217 -220 0
219 220 221 0
-219 -221 0
-220 -221 0
21 -221 222 0
-21 -222 0
221 -222 0
-21 221 223 0
21 -223 0
-221 -223 0
222 223 224 0
-222 -224 0
-223 -224 0
21 -224 225 0
-21 -225 0
224 -225 0
-21 224 226 0
21 -226 0
-224 -226 0
225 226 227 0
-225 -227 0
-226 -227 0
27 -221 228 0
-27 -228 0
221 -228 0
-27 221 229 0
27 -229 0
-221 -229 0
228 229 230 0
-228 -230 0
-229 -230 0
24 -230 231 0
-24 -231 0
230 -231 0
-24 230 232 0
24 -232 0
-230 -232 0
231 232 233 0
-231 -233 0
-232 -233 0
24 -27 234 0
-24 -234 0
27 -234 0
-24 27 235 0
24 -235 0
-27 -235 0
221 235 236 0
-221 -236 0
-235 -236 0
-221 -234 237 0
221 -237 0
234 -237 0
236 237 238 0
-236 -238 0
-237 -238 0
30 -238 239 0
-30 -239 0
238 -239 0
-30 238 240 0
30 -240 0
-238 -240 0
239 240 241 0
-239 -241 0
-240 -241 0
30 -241 242 0
-30 -242 0
241 -242 0
-30 241 243 0
30 -243 0
-241 -243 0
242 243 244 0
-242 -244 0
-243 -244 0
33 -238 245 0
-33 -245 0
238 -245 0
-33 238 246 0
33 -246 0
-238 -246 0
245 246 247 0
-245 -247 0
-246 -247 0
33 -247 248 0
-33 -248 0
247 -248 0
-33 247 249 0
33 -249 0
-247 -249 0
248 249 250 0
-248 -250 0
-249 -250 0
-644 -238 251 0
644 -251 0
238 -251 0
644 238 252 0
-644 -252 0
-238 -252 0
251 252 253 0
-251 -253 0
-252 -253 0
-644 -253 254 0
644 -254 0
253 -254 0
644 253 255 0
-644 -255 0
-253 -255 0
254 255 256 0
-254 -256 0
-255 -256 0
49 -238 257 0
-49 -257 0
238 -257 0
-49 238 258 0
49 -258 0
-238 -258 0
257 258 259 0
-257 -259 0
-258 -259 0
188 -259 260 0
-188 -260 0
259 -260 0
-188 259 261 0
188 -261 0
-259 -261 0
260 261 262 0
-260 -262 0
-261 -262 0
-49 188 263 0
49 -263 0
-188 -263 0
49 -188 264 0
-49 -264 0
188 -264 0
238 264 265 0
-238 -265 0
-264 -265 0
-238 -263 266 0
238 -266 0
263 -266 0
265 266 267 0
-265 -267 0
-266 -267 0
65 -267 268 0
-65 -268 0
267 -268 0
-65 267 269 0
65 -269 0
-267 -269 0
268 269 270 0
-268 -270 0
-269 -270 0
189 -270 271 0
-189 -271 0
270 -271 0
-189 270 272 0
189 -272 0
-270 -272 0
271 272 273 0
-271 -273 0
-272 -273 0
-65 189 274 0
65 -274 0
-189 -274 0
65 -189 275 0
-65 -275 0
189 -275 0
267 275 276 0
-267 -276 0
-275 -276 0
-267 -274 277 0
267 -277 0
274 -277 0
276 277 278 0
-276 -278 0
-277 -278 0
85 -278 279 0
-85 -279 0
278 -279 0
-85 278 280 0
85 -280 0
-278 -280 0
279 280 281 0
-279 -281 0
-280 -281 0
-190 -281 282 0
190 -282 0
281 -282 0
190 281 283 0
-190 -283 0
-281 -283 0
282 283 284 0
-282 -284 0
-283 -284 0
-85 -190 285 0
85 -285 0
190 -285 0
85 190 286 0
-85 -286 0
-190 -286 0
278 286 287 0
-278 -287 0
-286 -287 0
-278 -285 288 0
278 -288 0
285 -288 0
287 288 289 0
-287 -289 0
-288 -289 0
102 -289 290 0
-102 -290 0
289 -290 0
-102 289 291 0
102 -291 0
-289 -291 0
290 291 292 0
-290 -292 0
-291 -292 0
-191 -292 293 0
191 -293 0
292 -293 0
191 292 294 0
-191 -294 0
-292 -294 0
293 294 295 0
-293 -295 0
-294 -295 0
-102 -191 296 0
102 -296 0
191 -296 0
102 191 297 0
-102 -297 0
-191 -297 0
289 297 298 0
-289 -298 0
-297 -298 0
-289 -296 299 0
289 -299 0
296 -299 0
298 299 300 0
-298 -300 0
-299 -300 0
121 -300 301 0
-121 -301 0
300 -301 0
-121 300 302 0
121 -302 0
-300 -302 0
301 302 303 0
-301 -303 0
-302 -303 0
-192 -303 304 0
192 -304 0
303 -304 0
192 303 305 0
-192 -305 0
-303 -305 0
304 305 306 0
-304 -306 0
-305 -306 0
-121 -192 307 0
121 -307 0
192 -307 0
121 192 308 0
-121 -308 0
-192 -308 0
300 308 309 0
-300 -309 0
-308 -309 0
-300 -307 310 0
300 -310 0
307 -310 0
309 310 311 0
-309 -311 0
-310 -311 0
140 -311 312 0
-140 -312 0
311 -312 0
-140 311 313 0
140 -313 0
-311 -313 0
312 313 314 0
-312 -314 0
-313 -314 0
-193 -314 315 0
193 -315 0
314 -315 0
193 314 316 0
-193 -316 0
-314 -316 0
315 316 317 0
-315 -317 0
-316 -317 0
-140 -193 318 0
140 -318 0
193 -318 0
140 193 319 0
-140 -319 0
-193 -319 0
311 319 320 0
-311 -320 0
-319 -320 0
-311 -318 321 0
311 -321 0
318 -321 0
320 321 322 0
-320 -322 0
-321 -322 0
157 -322 323 0
-157 -323 0
322 -323 0
-157 322 324 0
157 -324 0
-322 -324 0
323 324 325 0
-323 -325 0
-324 -325 0
-194 -325 326 0
194 -326 0
325 -326 0
194 325 327 0
-194 -327 0
-325 -327 0
326 327 328 0
-326 -328 0
-327 -328 0
-157 -194 329 0
157 -329 0
194 -329 0
157 194 330 0
-157 -330 0
-194 -330 0
322 330 331 0
-322 -331 0
-330 -331 0
-322 -329 332 0
322 -332 0
329 -332 0
331 332 333 0
-331 -333 0
-332 -333 0
177 -333 334 0
-177 -334 0
333 -334 0
-177 333 335 0
177 -335 0
-333 -335 0
334 335 336 0
-334 -336 0
-335 -336 0
-195 -336 337 0
195 -337 0
336 -337 0
195 336 338 0
-195 -338 0
-336 -338 0
337 338 339 0
-337 -339 0
-338 -339 0
-177 -195 340 0
177 -340 0
195 -340 0
177 195 341 0
-177 -341 0
-195 -341 0
333 341 342 0
-333 -342 0
-341 -342 0
-333 -340 343 0
333 -343 0
340 -343 0
342 343 344 0
-342 -344 0
-343 -344 0
187 -344 345 0
-187 -345 0
344 -345 0
-187 344 346 0
187 -346 0
-344 -346 0
345 346 347 0
-345 -347 0
-346 -347 0
184 -347 348 0
-184 -348 0
347 -348 0
-184 347 349 0
184 -349 0
-347 -349 0
348 349 350 0
-348 -350 0
-349 -350 0
184 -187 351 0
-184 -351 0
187 -351 0
-184 187 352 0
184 -352 0
-187 -352 0
344 352 353 0
-344 -353 0
-352 -353 0
-344 -351 354 0
344 -354 0
351 -354 0
353 354 355 0
-353 -355 0
-354 -355 0
-198 -204 356 0
198 -356 0
204 -356 0
-210 356 357 0
210 -357 0
-356 -357 0
210 -356 358 0
-210 -358 0
356 -358 0
357 358 359 0
-357 -359 0
-358 -359 0
-210 -356 360 0
210 -360 0
356 -360 0
-216 360 361 0
216 -361 0
-360 -361 0
216 -360 362 0
-216 -362 0
360 -362 0
361 362 363 0
-361 -363 0
-362 -363 0
-216 -360 364 0
216 -364 0
360 -364 0
-227 364 365 0
227 -365 0
-364 -365 0
227 -364 366 0
-227 -366 0
364 -366 0
365 366 367 0
-365 -367 0
-366 -367 0
-227 -364 368 0
227 -368 0
364 -368 0
-233 368 369 0
233 -369 0
-368 -369 0
233 -368 370 0
-233 -370 0
368 -370 0
369 370 371 0
-369 -371 0
-370 -371 0
-233 -368 372 0
233 -372 0
368 -372 0
-244 372 373 0
244 -373 0
-372 -373 0
244 -372 374 0
-244 -374 0
372 -374 0
373 374 375 0
-373 -375 0
-374 -375 0
-244 -372 376 0
244 -376 0
372 -376 0
-250 376 377 0
250 -377 0
-376 -377 0
250 -376 378 0
-250 -378 0
376 -378 0
377 378 379 0
-377 -379 0
-378 -379 0
-250 -376 380 0
250 -380 0
376 -380 0
-256 380 381 0
256 -381 0
-380 -381 0
256 -380 382 0
-256 -382 0
380 -382 0
381 382 383 0
-381 -383 0
-382 -383 0
-256 -380 384 0
256 -384 0
380 -384 0
-262 384 385 0
262 -385 0
-384 -385 0
262 -384 386 0
-262 -386 0
384 -386 0
385 386 387 0
-385 -387 0
-386 -387 0
-262 -384 388 0
262 -388 0
384 -388 0
-273 388 389 0
273 -389 0
-388 -389 0
273 -388 390 0
-273 -390 0
388 -390 0
389 390 391 0
-389 -391 0
-390 -391 0
-273 -388 392 0
273 -392 0
388 -392 0
-284 392 393 0
284 -393 0
-392 -393 0
284 -392 394 0
-284 -394 0
392 -394 0
393 394 395 0
-393 -395 0
-394 -395 0
-284 -392 396 0
284 -396 0
392 -396 0
-295 396 397 0
295 -397 0
-396 -397 0
295 -396 398 0
-295 -398 0
396 -398 0
397 398 399 0
-397 -399 0
-398 -399 0
-295 -396 400 0
295 -400 0
396 -400 0
-306 400 401 0
306 -401 0
-400 -401 0
306 -400 402 0
-306 -402 0
400 -402 0
401 402 403 0
-401 -403 0
-402 -403 0
-306 -400 404 0
306 -404 0
400 -404 0
-317 404 405 0
317 -405 0
-404 -405 0
317 -404 406 0
-317 -406 0
404 -406 0
405 406 407 0
-405 -407 0
-406 -407 0
-317 -404 408 0
317 -408 0
404 -408 0
-328 408 409 0
328 -409 0
-408 -409 0
328 -408 410 0
-328 -410 0
408 -410 0
409 410 411 0
-409 -411 0
-410 -411 0
-328 -408 412 0
328 -412 0
408 -412 0
-339 412 413 0
339 -413 0
-412 -413 0
339 -412 414 0
-339 -414 0
412 -414 0
413 414 415 0
-413 -415 0
-414 -415 0
-339 -412 416 0
339 -416 0
412 -416 0
-350 416 417 0
350 -417 0
-416 -417 0
350 -416 418 0
-350 -418 0
416 -418 0
417 418 419 0
-417 -419 0
-418 -419 0
210 -355 420 0
-210 -420 0
355 -420 0
355 359 421 0
-355 -421 0
-359 -421 0
420 421 422 0
-420 -422 0
-421 -422 0
216 -355 423 0
-216 -423 0
355 -423 0
355 363 424 0
-355 -424 0
-363 -424 0
423 424 425 0
-423 -425 0
-424 -425 0
227 -355 426 0
-227 -426 0
355 -426 0
355 367 427 0
-355 -427 0
-367 -427 0
426 427 428 0
-426 -428 0
-427 -428 0
233 -355 429 0
-233 -429 0
355 -429 0
355 371 430 0
-355 -430 0
-371 -430 0
429 430 431 0
-429 -431 0
-430 -431 0
244 -355 432 0
-244 -432 0
355 -432 0
355 375 433 0
-355 -433 0
-375 -433 0
432 433 434 0
-432 -434 0
-433 -434 0
250 -355 435 0
-250 -435 0
355 -435 0
355 379 436 0
-355 -436 0
-379 -436 0
435 436 437 0
-435 -437 0
-436 -437 0
256 -355 438 0
-256 -438 0
355 -438 0
355 383 439 0
-355 -439 0
-383 -439 0
438 439 440 0
-438 -440 0
-439 -440 0
262 -355 441 0
-262 -441 0
355 -441 0
355 387 442 0
-355 -442 0
-387 -442 0
441 442 443 0
-441 -443 0
-442 -443 0
273 -355 444 0
-273 -444 0
355 -444 0
355 391 445 0
-355 -445 0
-391 -445 0
444 445 446 0
-444 -446 0
-445 -446 0
284 -355 447 0
-284 -447 0
355 -447 0
355 395 448 0
-355 -448 0
-395 -448 0
447 448 449 0
-447 -449 0
-448 -449 0
295 -355 450 0
-295 -450 0
355 -450 0
355 399 451 0
-355 -451 0
-399 -451 0
450 451 452 0
-450 -452 0
-451 -452 0
306 -355 453 0
-306 -453 0
355 -453 0
355 403 454 0
-355 -454 0
-403 -454 0
453 454 455 0
-453 -455 0
-454 -455 0
317 -355 456 0
-317 -456 0
355 -456 0
355 407 457 0
-355 -457 0
-407 -457 0
456 457 458 0
-456 -458 0
-457 -458 0
328 -355 459 0
-328 -459 0
355 -459 0
355 411 460 0
-355 -460 0
-411 -460 0
459 460 461 0
-459 -461 0
-460 -461 0
339 -355 462 0
-339 -462 0
355 -462 0
355 415 463 0
-355 -463 0
-415 -463 0
462 463 464 0
-462 -464 0
-463 -464 0
350 -355 465 0
-350 -465 0
355 -465 0
355 419 466 0
-355 -466 0
-419 -466 0
465 466 467 0
-465 -467 0
-466 -467 0
-422 -425 468 0
422 -468 0
425 -468 0
428 -468 469 0
-428 -469 0
468 -469 0
428 469 470 0
-428 -470 0
-469 -470 0
431 470 471 0
-431 -471 0
-470 -471 0
431 471 472 0
-431 -472 0
-471 -472 0
-434 472 473 0
434 -473 0
-472 -473 0
-437 -473 474 0
437 -474 0
473 -474 0
440 -474 475 0
-440 -475 0
474 -475 0
440 475 476 0
-440 -476 0
-475 -476 0
443 476 477 0
-443 -477 0
-476 -477 0
443 477 478 0
-443 -478 0
-477 -478 0
-446 478 479 0
446 -479 0
-478 -479 0
-449 -479 480 0
449 -480 0
479 -480 0
452 -480 481 0
-452 -481 0
480 -481 0
452 481 482 0
-452 -482 0
-481 -482 0
455 482 483 0
-455 -483 0
-482 -483 0
455 483 484 0
-455 -484 0
-483 -484 0
-458 484 485 0
458 -485 0
-484 -485 0
-461 -485 486 0
461 -486 0
485 -486 0
-464 -486 487 0
464 -487 0
486 -487 0
-467 -487 488 0
467 -488 0
487 -488 0
-667 -668 489 0
667 -489 0
668 -489 0
667 668 490 0
-667 -490 0
-668 -490 0
-669 -670 491 0
669 -491 0
670 -491 0
669 670 492 0
-669 -492 0
-670 -492 0
-489 -491 493 0
489 -493 0
491 -493 0
489 491 494 0
-489 -494 0
-491 -494 0
490 492 495 0
-490 -495 0
-492 -495 0
-490 -492 496 0
490 -496 0
492 -496 0
494 -495 497 0
-494 -497 0
495 -497 0
-494 495 498 0
494 -498 0
-495 -498 0
-671 -672 499 0
671 -499 0
672 -499 0
671 672 500 0
-671 -500 0
-672 -500 0
-673 -674 501 0
673 -501 0
674 -501 0
673 674 502 0
-673 -502 0
-674 -502 0
-499 -501 503 0
499 -503 0
501 -503 0
499 501 504 0
-499 -504 0
-501 -504 0
500 502 505 0
-500 -505 0
-502 -505 0
-500 -502 506 0
500 -506 0
502 -506 0
504 -505 507 0
-504 -507 0
505 -507 0
-504 505 508 0
504 -508 0
-505 -508 0
-493 -503 509 0
493 -509 0
503 -509 0
493 503 510 0
-493 -510 0
-503 -510 0
498 508 511 0
-498 -511 0
-508 -511 0
-498 -508 512 0
498 -512 0
508 -512 0
510 -511 513 0
-510 -513 0
511 -513 0
-510 511 514 0
510 -514 0
-511 -514 0
-497 -507 515 0
497 -515 0
507 -515 0
497 507 516 0
-497 -516 0
-507 -516 0
496 506 517 0
-496 -517 0
-506 -517 0
-496 -506 518 0
496 -518 0
506 -518 0
516 -517 519 0
-516 -519 0
517 -519 0
-516 517 520 0
516 -520 0
-517 -520 0
-513 -515 521 0
513 -521 0
515 -521 0
513 515 522 0
-513 -522 0
-515 -522 0
514 -519 523 0
-514 -523 0
519 -523 0
-514 519 524 0
514 -524 0
-519 -524 0
512 520 525 0
-512 -525 0
-520 -525 0
-512 -520 526 0
512 -526 0
520 -526 0
-675 -676 527 0
675 -527 0
676 -527 0
675 676 528 0
-675 -528 0
-676 -528 0
-677 -678 529 0
677 -529 0
678 -529 0
677 678 530 0
-677 -530 0
-678 -530 0
-527 -529 531 0
527 -531 0
529 -531 0
527 529 532 0
-527 -532 0
-529 -532 0
528 530 533 0
-528 -533 0
-530 -533 0
-528 -530 534 0
528 -534 0
530 -534 0
532 -533 535 0
-532 -535 0
533 -535 0
-532 533 536 0
532 -536 0
-533 -536 0
-679 -680 537 0
679 -537 0
680 -537 0
679 680 538 0
-679 -538 0
-680 -538 0
-681 -682 539 0
681 -539 0
682 -539 0
681 682 540 0
-681 -540 0
-682 -540 0
-537 -539 541 0
537 -541 0
539 -541 0
537 539 542 0
-537 -542 0
-539 -542 0
538 540 543 0
-538 -543 0
-540 -543 0
-538 -540 544 0
538 -544 0
540 -544 0
542 -543 545 0
-542 -545 0
543 -545 0
-542 543 546 0
542 -546 0
-543 -546 0
-531 -541 547 0
531 -547 0
541 -547 0
531 541 548 0
-531 -548 0
-541 -548 0
536 546 549 0
-536 -549 0
-546 -549 0
-536 -546 550 0
536 -550 0
546 -550 0
548 -549 551 0
-548 -551 0
549 -551 0
-548 549 552 0
548 -552 0
-549 -552 0
-535 -545 553 0
535 -553 0
545 -553 0
535 545 554 0
-535 -554 0
-545 -554 0
534 544 555 0
-534 -555 0
-544 -555 0
-534 -544 556 0
534 -556 0
544 -556 0
554 -555 557 0
-554 -557 0
555 -557 0
-554 555 558 0
554 -558 0
-555 -558 0
-551 -553 559 0
551 -559 0
553 -559 0
551 553 560 0
-551 -560 0
-553 -560 0
552 -557 561 0
-552 -561 0
557 -561 0
-552 557 562 0
552 -562 0
-557 -562 0
550 558 563 0
-550 -563 0
-558 -563 0
-550 -558 564 0
550 -564 0
558 -564 0
-509 -547 565 0
509 -565 0
547 -565 0
509 547 566 0
-509 -566 0
-547 -566 0
524 562 567 0
-524 -567 0
-562 -567 0
-524 -562 568 0
524 -568 0
562 -568 0
566 -567 569 0
-566 -569 0
567 -569 0
-566 567 570 0
566 -570 0
-567 -570 0
522 560 571 0
-522 -571 0
-560 -571 0
-522 -560 572 0
522 -572 0
560 -572 0
526 564 573 0
-526 -573 0
-564 -573 0
572 -573 574 0
-572 -574 0
573 -574 0
-572 573 575 0
572 -575 0
-573 -575 0
-569 -571 576 0
569 -576 0
571 -576 0
569 571 577 0
-569 -577 0
-571 -577 0
570 -574 578 0
-570 -578 0
574 -578 0
-570 574 579 0
570 -579 0
-574 -579 0
568 575 580 0
-568 -580 0
-575 -580 0
-568 -575 581 0
568 -581 0
575 -581 0
-521 -559 582 0
521 -582 0
559 -582 0
521 559 583 0
-521 -583 0
-559 -583 0
-525 -563 584 0
525 -584 0
563 -584 0
525 563 585 0
-525 -585 0
-563 -585 0
583 -584 586 0
-583 -586 0
584 -586 0
-583 584 587 0
583 -587 0
-584 -587 0
-523 -561 588 0
523 -588 0
561 -588 0
523 561 589 0
-523 -589 0
-561 -589 0
518 556 590 0
-518 -590 0
-556 -590 0
589 -590 591 0
-589 -591 0
590 -591 0
-589 590 592 0
589 -592 0
-590 -592 0
-586 -588 593 0
586 -593 0
588 -593 0
586 588 594 0
-586 -594 0
-588 -594 0
587 -591 595 0
-587 -595 0
591 -595 0
-587 591 596 0
587 -596 0
-591 -596 0
585 592 597 0
-585 -597 0
-592 -597 0
-576 -582 598 0
576 -598 0
582 -598 0
576 582 599 0
-576 -599 0
-582 -599 0
577 -593 600 0
-577 -600 0
593 -600 0
-577 593 601 0
577 -601 0
-593 -601 0
-578 594 602 0
578 -602 0
-594 -602 0
578 -594 603 0
-578 -603 0
594 -603 0
579 -595 604 0
-579 -604 0
595 -604 0
-579 595 605 0
579 -605 0
-595 -605 0
-580 596 606 0
580 -606 0
-596 -606 0
580 -596 607 0
-580 -607 0
596 -607 0
581 -597 608 0
-581 -608 0
597 -608 0
-683 -684 609 0
683 -609 0
684 -609 0
683 684 610 0
-683 -610 0
-684 -610 0
-685 -686 611 0
685 -611 0
686 -611 0
685 686 612 0
-685 -612 0
-686 -612 0
-609 -611 613 0
609 -613 0
611 -613 0
609 611 614 0
-609 -614 0
-611 -614 0
610 612 615 0
-610 -615 0
-612 -615 0
-610 -612 616 0
610 -616 0
612 -616 0
614 -615 617 0
-614 -617 0
615 -617 0
-614 615 618 0
614 -618 0
-615 -618 0
-617 618 619 0
617 -619 0
-618 -619 0
617 -618 620 0
-617 -620 0
618 -620 0
-619 620 621 0
619 -621 0
-620 -621 0
619 -620 622 0
-619 -622 0
620 -622 0
565 613 623 0
-565 -623 0
-613 -623 0
605 623 624 0
-605 -624 0
-623 -624 0
-601 624 625 0
601 -625 0
-624 -625 0
-599 -622 626 0
599 -626 0
622 -626 0
607 626 627 0
-607 -627 0
-626 -627 0
603 -627 628 0
-603 -628 0
627 -628 0
-625 628 629 0
625 -629 0
-628 -629 0
598 621 630 0
-598 -630 0
-621 -630 0
-606 630 631 0
606 -631 0
-630 -631 0
602 631 632 0
-602 -632 0
-631 -632 0
600 -616 633 0
-600 -633 0
616 -633 0
-608 633 634 0
608 -634 0
-633 -634 0
-604 -634 635 0
604 -635 0
634 -635 0
632 -635 636 0
-632 -636 0
635 -636 0
-629 636 637 0
629 -637 0
-636 -637 0
-488 637 638 0
488 -638 0
-637 -638 0
687 0
638 0
